CLT08
Position Depot: Random
Horizon for Depot: Large
Position of customers: Cluster
Distribution of the demand: Small
Width of time windows: Tight
Distribution of the service: Small

VEHICLE 
NUMBER 	 CAPACITY 
 6 	 	 116 
 
CUSTOMER
CUST NO. 	 XCOORD.  	 YCOORD. 	 DEMAND 	 READY TIME 	 DUE DATE 	 SERVICE TIME 
 0 	 	 713 	 	 436 	 	 0 	 	 0 	 	 4096 	 	 0 
  1 	 	 340 	 	 170 	 	 10 	 	 3095 	 	 3222 	 	 94 
  2 	 	 852 	 	 773 	 	 7 	 	 1917 	 	 2087 	 	 79 
  3 	 	 709 	 	 222 	 	 6 	 	 1526 	 	 1605 	 	 62 
  4 	 	 71 	 	 375 	 	 8 	 	 954 	 	 1140 	 	 66 
  5 	 	 799 	 	 669 	 	 8 	 	 932 	 	 1064 	 	 98 
  6 	 	 791 	 	 389 	 	 6 	 	 3632 	 	 3798 	 	 54 
  7 	 	 395 	 	 962 	 	 5 	 	 575 	 	 676 	 	 96 
  8 	 	 415 	 	 107 	 	 5 	 	 2867 	 	 2919 	 	 55 
  9 	 	 53 	 	 277 	 	 9 	 	 1796 	 	 1951 	 	 90 
  10 	 	 225 	 	 885 	 	 8 	 	 2641 	 	 2762 	 	 72 
  11 	 	 808 	 	 723 	 	 8 	 	 432 	 	 510 	 	 100 
  12 	 	 112 	 	 340 	 	 7 	 	 589 	 	 669 	 	 61 
  13 	 	 795 	 	 684 	 	 6 	 	 290 	 	 477 	 	 86 
  14 	 	 279 	 	 899 	 	 7 	 	 1443 	 	 1554 	 	 57 
  15 	 	 874 	 	 940 	 	 9 	 	 3589 	 	 3757 	 	 52 
  16 	 	 695 	 	 242 	 	 6 	 	 1964 	 	 2124 	 	 85 
  17 	 	 789 	 	 423 	 	 8 	 	 2750 	 	 2882 	 	 59 
  18 	 	 429 	 	 846 	 	 7 	 	 994 	 	 1063 	 	 77 
  19 	 	 636 	 	 249 	 	 9 	 	 1504 	 	 1618 	 	 82 
  20 	 	 424 	 	 211 	 	 6 	 	 1444 	 	 1525 	 	 97 
  21 	 	 855 	 	 771 	 	 10 	 	 1972 	 	 2069 	 	 76 
  22 	 	 810 	 	 247 	 	 7 	 	 2205 	 	 2365 	 	 63 
  23 	 	 654 	 	 396 	 	 9 	 	 1086 	 	 1265 	 	 60 
  24 	 	 828 	 	 800 	 	 7 	 	 1169 	 	 1364 	 	 94 
  25 	 	 164 	 	 241 	 	 10 	 	 1903 	 	 2018 	 	 86 
  26 	 	 904 	 	 780 	 	 10 	 	 3163 	 	 3215 	 	 51 
  27 	 	 651 	 	 650 	 	 6 	 	 2556 	 	 2619 	 	 90 
  28 	 	 77 	 	 397 	 	 7 	 	 1136 	 	 1194 	 	 93 
  29 	 	 878 	 	 384 	 	 7 	 	 2473 	 	 2667 	 	 60 
  30 	 	 443 	 	 948 	 	 8 	 	 3478 	 	 3546 	 	 78 
  31 	 	 705 	 	 794 	 	 9 	 	 1594 	 	 1730 	 	 96 
  32 	 	 72 	 	 396 	 	 10 	 	 3572 	 	 3632 	 	 53 
  33 	 	 12 	 	 284 	 	 5 	 	 912 	 	 1051 	 	 65 
  34 	 	 365 	 	 985 	 	 5 	 	 842 	 	 959 	 	 63 
  35 	 	 106 	 	 340 	 	 7 	 	 2745 	 	 2830 	 	 56 
  36 	 	 598 	 	 486 	 	 6 	 	 1511 	 	 1648 	 	 91 
  37 	 	 832 	 	 848 	 	 8 	 	 3325 	 	 3418 	 	 81 
  38 	 	 901 	 	 287 	 	 7 	 	 1460 	 	 1533 	 	 56 
  39 	 	 62 	 	 367 	 	 8 	 	 3265 	 	 3347 	 	 96 
  40 	 	 360 	 	 962 	 	 6 	 	 1768 	 	 1851 	 	 54 
  41 	 	 831 	 	 270 	 	 6 	 	 1688 	 	 1816 	 	 78 
  42 	 	 39 	 	 426 	 	 5 	 	 3522 	 	 3581 	 	 67 
  43 	 	 35 	 	 284 	 	 5 	 	 3627 	 	 3716 	 	 75 
  44 	 	 422 	 	 167 	 	 9 	 	 3361 	 	 3477 	 	 71 
  45 	 	 750 	 	 840 	 	 6 	 	 2731 	 	 2870 	 	 95 
  46 	 	 863 	 	 741 	 	 6 	 	 3571 	 	 3702 	 	 59 
  47 	 	 338 	 	 976 	 	 5 	 	 1192 	 	 1382 	 	 99 
  48 	 	 89 	 	 472 	 	 6 	 	 1824 	 	 1982 	 	 51 
  49 	 	 936 	 	 796 	 	 9 	 	 3589 	 	 3690 	 	 52 
  50 	 	 254 	 	 170 	 	 6 	 	 781 	 	 912 	 	 56 
  51 	 	 397 	 	 858 	 	 8 	 	 3741 	 	 3875 	 	 84 
  52 	 	 856 	 	 765 	 	 7 	 	 3620 	 	 3793 	 	 57 
  53 	 	 793 	 	 374 	 	 10 	 	 3802 	 	 3902 	 	 88 
  54 	 	 319 	 	 111 	 	 10 	 	 453 	 	 561 	 	 94 
  55 	 	 879 	 	 830 	 	 8 	 	 1179 	 	 1261 	 	 82 
  56 	 	 809 	 	 370 	 	 8 	 	 357 	 	 440 	 	 98 
  57 	 	 765 	 	 385 	 	 6 	 	 851 	 	 954 	 	 98 
  58 	 	 390 	 	 72 	 	 9 	 	 519 	 	 671 	 	 52 
  59 	 	 478 	 	 964 	 	 5 	 	 3708 	 	 3771 	 	 83 
  60 	 	 739 	 	 118 	 	 6 	 	 2376 	 	 2528 	 	 50 
  61 	 	 771 	 	 115 	 	 7 	 	 2912 	 	 3037 	 	 51 
  62 	 	 821 	 	 619 	 	 7 	 	 3433 	 	 3576 	 	 64 
  63 	 	 842 	 	 402 	 	 7 	 	 2139 	 	 2233 	 	 77 
  64 	 	 825 	 	 765 	 	 8 	 	 400 	 	 465 	 	 63 
  65 	 	 890 	 	 663 	 	 6 	 	 3107 	 	 3186 	 	 55 
  66 	 	 48 	 	 383 	 	 6 	 	 3404 	 	 3566 	 	 98 
  67 	 	 368 	 	 259 	 	 8 	 	 978 	 	 1112 	 	 78 
  68 	 	 177 	 	 251 	 	 8 	 	 2959 	 	 3117 	 	 79 
  69 	 	 422 	 	 180 	 	 8 	 	 2800 	 	 2930 	 	 84 
  70 	 	 408 	 	 951 	 	 10 	 	 1954 	 	 2015 	 	 75 
  71 	 	 112 	 	 321 	 	 5 	 	 612 	 	 673 	 	 68 
  72 	 	 790 	 	 300 	 	 8 	 	 635 	 	 698 	 	 69 
  73 	 	 742 	 	 682 	 	 6 	 	 1879 	 	 2045 	 	 84 
  74 	 	 743 	 	 222 	 	 10 	 	 159 	 	 290 	 	 83 
  75 	 	 352 	 	 198 	 	 7 	 	 3411 	 	 3563 	 	 69 
  76 	 	 936 	 	 613 	 	 9 	 	 159 	 	 313 	 	 65 
  77 	 	 331 	 	 130 	 	 7 	 	 3589 	 	 3664 	 	 75 
  78 	 	 602 	 	 685 	 	 10 	 	 2898 	 	 3086 	 	 51 
  79 	 	 115 	 	 262 	 	 6 	 	 3005 	 	 3120 	 	 92 
  80 	 	 99 	 	 358 	 	 5 	 	 2715 	 	 2808 	 	 69 
  81 	 	 799 	 	 718 	 	 8 	 	 162 	 	 324 	 	 79 
  82 	 	 746 	 	 104 	 	 6 	 	 2236 	 	 2323 	 	 60 
  83 	 	 822 	 	 659 	 	 5 	 	 442 	 	 600 	 	 67 
  84 	 	 866 	 	 306 	 	 7 	 	 2219 	 	 2302 	 	 52 
  85 	 	 813 	 	 401 	 	 8 	 	 3463 	 	 3634 	 	 59 
  86 	 	 713 	 	 563 	 	 6 	 	 653 	 	 790 	 	 83 
  87 	 	 792 	 	 365 	 	 9 	 	 4008 	 	 4096 	 	 57 
  88 	 	 860 	 	 916 	 	 7 	 	 1266 	 	 1385 	 	 82 
  89 	 	 765 	 	 318 	 	 6 	 	 2697 	 	 2767 	 	 60 
  90 	 	 834 	 	 120 	 	 10 	 	 296 	 	 387 	 	 99 
  91 	 	 358 	 	 211 	 	 8 	 	 307 	 	 462 	 	 89 
  92 	 	 40 	 	 301 	 	 7 	 	 3381 	 	 3466 	 	 60 
  93 	 	 811 	 	 632 	 	 10 	 	 3732 	 	 3869 	 	 84 
  94 	 	 803 	 	 304 	 	 5 	 	 1302 	 	 1494 	 	 82 
  95 	 	 848 	 	 765 	 	 7 	 	 2893 	 	 2950 	 	 56 
  96 	 	 359 	 	 158 	 	 5 	 	 1743 	 	 1820 	 	 100 
  97 	 	 704 	 	 222 	 	 7 	 	 132 	 	 235 	 	 90 
  98 	 	 793 	 	 783 	 	 8 	 	 3512 	 	 3581 	 	 61 
  99 	 	 871 	 	 627 	 	 5 	 	 861 	 	 1043 	 	 77 
  100 	 	 789 	 	 578 	 	 6 	 	 1607 	 	 1662 	 	 78 
 